c User generated cnf file
p cnf 11 41
7 1 -8 0 
8 -8 5 0 
6 -11 7 0 
1 -3 5 0 
10 -3 2 0 
9 -2 6 0 
6 -6 8 0 
1 3 -5 0 
5 -9 2 0 
6 8 -4 0 
11 4 -6 0 
6 -6 5 0 
6 2 -2 0 
7 5 -4 0 
3 11 -8 0 
11 10 -11 0 
10 3 -8 0 
4 3 -7 0 
8 7 -9 0 
3 -6 4 0 
2 -9 4 0 
11 -6 9 0 
10 1 -6 0 
8 8 -7 0 
3 -5 11 0 
9 10 -2 0 
11 -7 10 0 
2 2 -6 0 
9 9 -8 0 
2 -8 1 0 
4 -10 8 0 
1 -6 4 0 
7 10 -7 0 
8 8 -1 0 
3 6 -1 0 
1 -10 8 0 
5 9 -9 0 
5 -5 6 0 
8 -8 7 0 
2 -9 4 0 
3 -4 4 0 
